NAME : R207.5755.tour
COMMENT : Cost = 0_5755
COMMENT : Found by LKH [Keld Helsgaun] Wed Sep 13 18:34:21 2017
TYPE : TOUR
DIMENSION : 53
TOUR_SECTION
1
3
43
44
16
24
40
23
42
22
41
53
28
32
8
49
48
37
47
46
9
19
7
38
45
15
39
17
18
6
14
52
29
13
4
34
51
2
31
33
12
50
20
11
21
10
36
35
30
25
26
5
27
-1
EOF
